# Node Net
 31   1
 51   1
3850   1
 46   1
841   1
4879   1
3641   2
3710   2
3990   2
3570   2
4874   2
981   2
3991   3
 53   3
4865   3
3220   3
4842   3
 53   3
2730   4
 29   4
491   4
 22   4
4620   4
4480   4
2661   5
4840   5
3360   5
3361   5
4889   5
4852   5
4853   6
4835   6
3431   6
421   6
 69   6
1401   6
4839   7
1961   7
  3   7
4270   7
4760   7
2031   7
1821   8
280   8
2170   8
 17   8
  8   8
  9   8
4883   9
4899   9
4410   9
3430   9
4898  10
631  10
490  10
4897  10
